benchmarks/bfuzz0/213312985629210183942635323153262096262.smt2
(set-logic QF_FP)
(declare-const x0 (_ FloatingPoint 11 53))
(declare-const x1 (_ FloatingPoint 11 53))
(declare-const x2 (_ FloatingPoint 11 53))
(declare-const x3 (_ FloatingPoint 11 53))
(declare-const x4 (_ FloatingPoint 11 53))
(declare-const x5 (_ FloatingPoint 11 53))
(declare-const x6 (_ FloatingPoint 11 53))
(declare-const x7 (_ FloatingPoint 11 53))
(declare-const x8 (_ FloatingPoint 11 53))
(declare-const x9 (_ FloatingPoint 11 53))
(declare-const x10 (_ FloatingPoint 11 53))
(declare-const x11 (_ FloatingPoint 11 53))
(declare-const x12 (_ FloatingPoint 11 53))
(declare-const x13 (_ FloatingPoint 11 53))
(declare-const x14 (_ FloatingPoint 11 53))
(declare-const x15 (_ FloatingPoint 11 53))
(declare-const x16 (_ FloatingPoint 11 53))
(declare-const x17 (_ FloatingPoint 11 53))
(declare-const x18 (_ FloatingPoint 11 53))
(declare-const x19 (_ FloatingPoint 11 53))
(assert (fp.gt (fp.sub RNE (fp.add RNE (fp.neg x12) (fp.div RNE x17 x7)) (fp.neg (fp.neg x12))) (fp.neg (fp.neg (fp.mul RNE x13 x10)))))
(assert (fp.gt (fp.div RNE (fp.mul RNE (fp.mul RNE x13 x15) (fp.mul RNE x6 x0)) (fp.sub RNE (fp.sub RNE x6 x16) (fp.mul RNE x13 x6))) (fp.add RNE (fp.mul RNE (fp.sub RNE x11 x7) (fp.div RNE x0 x18)) (fp.sub RNE (fp.add RNE x0 x15) (fp.add RNE x16 x4)))))
(assert (fp.lt (fp.add RNE (fp.add RNE (fp.neg x12) (fp.mul RNE x19 x18)) (fp.add RNE (fp.neg x5) (fp.div RNE x13 x13))) (fp.mul RNE (fp.sub RNE (fp.div RNE x4 x0) (fp.mul RNE x12 x11)) (fp.neg (fp.add RNE x1 x18)))))
(assert (fp.lt (fp.mul RNE (fp.neg (fp.neg x8)) (fp.add RNE (fp.mul RNE x6 x17) (fp.add RNE x9 x0))) (fp.neg (fp.add RNE (fp.sub RNE x10 x7) (fp.neg x3)))))
(assert (fp.lt (fp.add RNE (fp.add RNE (fp.neg x2) (fp.mul RNE x12 x1)) (fp.div RNE (fp.add RNE x8 x17) (fp.add RNE x17 x9))) (fp.neg (fp.div RNE (fp.div RNE x17 x6) (fp.add RNE x18 x14)))))
(check-sat)
