db/data/213312985629210183942635323153262096262.z3.out
-------------------
2500.183952036
